MetodoExactoGurobiPy/csSolver.mps
NAME ARP
ROWS
 N  OBJ
 G  VisitarTodosArcos[1,6]
 G  VisitarTodosArcos[7,2]
 G  VisitarTodosArcos[3,8]
 G  VisitarTodosArcos[9,4]
 G  VisitarTodosArcos[5,10]
 G  VisitarTodosArcos[6,11]
 G  VisitarTodosArcos[12,7]
 G  VisitarTodosArcos[8,13]
 G  VisitarTodosArcos[14,9]
 G  VisitarTodosArcos[10,15]
 G  VisitarTodosArcos[11,16]
 G  VisitarTodosArcos[17,12]
 G  VisitarTodosArcos[13,18]
 G  VisitarTodosArcos[19,14]
 G  VisitarTodosArcos[15,20]
 G  VisitarTodosArcos[16,17]
 G  VisitarTodosArcos[17,18]
 G  VisitarTodosArcos[17,16]
 G  VisitarTodosArcos[18,17]
 G  VisitarTodosArcos[16,21]
 G  VisitarTodosArcos[22,17]
 G  VisitarTodosArcos[18,23]
 G  VisitarTodosArcos[24,19]
 G  VisitarTodosArcos[20,25]
 G  VisitarTodosArcosBidireccionales[1,2]
 G  VisitarTodosArcosBidireccionales[2,3]
 G  VisitarTodosArcosBidireccionales[3,4]
 G  VisitarTodosArcosBidireccionales[4,5]
 G  VisitarTodosArcosBidireccionales[2,1]
 G  VisitarTodosArcosBidireccionales[3,2]
 G  VisitarTodosArcosBidireccionales[4,3]
 G  VisitarTodosArcosBidireccionales[5,4]
 G  VisitarTodosArcosBidireccionales[6,7]
 G  VisitarTodosArcosBidireccionales[7,8]
 G  VisitarTodosArcosBidireccionales[8,9]
 G  VisitarTodosArcosBidireccionales[9,10]
 G  VisitarTodosArcosBidireccionales[7,6]
 G  VisitarTodosArcosBidireccionales[8,7]
 G  VisitarTodosArcosBidireccionales[9,8]
 G  VisitarTodosArcosBidireccionales[10,9]
 G  VisitarTodosArcosBidireccionales[11,12]
 G  VisitarTodosArcosBidireccionales[12,13]
 G  VisitarTodosArcosBidireccionales[13,14]
 G  VisitarTodosArcosBidireccionales[14,15]
 G  VisitarTodosArcosBidireccionales[12,11]
 G  VisitarTodosArcosBidireccionales[13,12]
 G  VisitarTodosArcosBidireccionales[14,13]
 G  VisitarTodosArcosBidireccionales[15,14]
 G  VisitarTodosArcosBidireccionales[18,19]
 G  VisitarTodosArcosBidireccionales[19,20]
 G  VisitarTodosArcosBidireccionales[19,18]
 G  VisitarTodosArcosBidireccionales[20,19]
 G  VisitarTodosArcosBidireccionales[21,22]
 G  VisitarTodosArcosBidireccionales[22,23]
 G  VisitarTodosArcosBidireccionales[23,24]
 G  VisitarTodosArcosBidireccionales[24,25]
 G  VisitarTodosArcosBidireccionales[22,21]
 G  VisitarTodosArcosBidireccionales[23,22]
 G  VisitarTodosArcosBidireccionales[24,23]
 G  VisitarTodosArcosBidireccionales[25,24]
 E  ConservacionDeFlujoPuntas[3]
 E  ConservacionDeFlujoPuntas[5]
 E  ConservacionDeFlujoPuntas[6]
 E  ConservacionDeFlujoCentro[1]
 E  ConservacionDeFlujoCentro[2]
 E  ConservacionDeFlujoCentro[4]
 E  ConservacionDeFlujoCentro[7]
 E  ConservacionDeFlujoCentro[8]
 E  ConservacionDeFlujoCentro[9]
 E  ConservacionDeFlujoCentro[10]
 E  ConservacionDeFlujoCentro[11]
 E  ConservacionDeFlujoCentro[12]
 E  ConservacionDeFlujoCentro[13]
 E  ConservacionDeFlujoCentro[14]
 E  ConservacionDeFlujoCentro[15]
 E  ConservacionDeFlujoCentro[16]
 E  ConservacionDeFlujoCentro[17]
 E  ConservacionDeFlujoCentro[18]
 E  ConservacionDeFlujoCentro[19]
 E  ConservacionDeFlujoCentro[20]
 E  ConservacionDeFlujoCentro[21]
 E  ConservacionDeFlujoCentro[22]
 E  ConservacionDeFlujoCentro[23]
 E  ConservacionDeFlujoCentro[24]
 E  ConservacionDeFlujoCentro[25]
 E  NodoInicial
 E  NodoTerminal
COLUMNS
    MARKER    'MARKER'                 'INTORG'
    x[1,2]    OBJ       4
    x[1,2]    VisitarTodosArcosBidireccionales[1,2]  1
    x[1,2]    VisitarTodosArcosBidireccionales[2,1]  1
    x[1,2]    ConservacionDeFlujoCentro[1]  -1
    x[1,2]    ConservacionDeFlujoCentro[2]  1
    x[2,3]    OBJ       2
    x[2,3]    VisitarTodosArcosBidireccionales[2,3]  1
    x[2,3]    VisitarTodosArcosBidireccionales[3,2]  1
    x[2,3]    ConservacionDeFlujoPuntas[3]  1
    x[2,3]    ConservacionDeFlujoCentro[2]  -1
    x[3,4]    OBJ       10
    x[3,4]    VisitarTodosArcosBidireccionales[3,4]  1
    x[3,4]    VisitarTodosArcosBidireccionales[4,3]  1
    x[3,4]    ConservacionDeFlujoPuntas[3]  -1
    x[3,4]    ConservacionDeFlujoCentro[4]  1
    x[4,5]    OBJ       8
    x[4,5]    VisitarTodosArcosBidireccionales[4,5]  1
    x[4,5]    VisitarTodosArcosBidireccionales[5,4]  1
    x[4,5]    ConservacionDeFlujoPuntas[5]  1
    x[4,5]    ConservacionDeFlujoCentro[4]  -1
    x[2,1]    OBJ       4
    x[2,1]    VisitarTodosArcosBidireccionales[1,2]  1
    x[2,1]    VisitarTodosArcosBidireccionales[2,1]  1
    x[2,1]    ConservacionDeFlujoCentro[1]  1
    x[2,1]    ConservacionDeFlujoCentro[2]  -1
    x[3,2]    OBJ       2
    x[3,2]    VisitarTodosArcosBidireccionales[2,3]  1
    x[3,2]    VisitarTodosArcosBidireccionales[3,2]  1
    x[3,2]    ConservacionDeFlujoPuntas[3]  -1
    x[3,2]    ConservacionDeFlujoCentro[2]  1
    x[4,3]    OBJ       10
    x[4,3]    VisitarTodosArcosBidireccionales[3,4]  1
    x[4,3]    VisitarTodosArcosBidireccionales[4,3]  1
    x[4,3]    ConservacionDeFlujoPuntas[3]  1
    x[4,3]    ConservacionDeFlujoCentro[4]  -1
    x[5,4]    OBJ       8
    x[5,4]    VisitarTodosArcosBidireccionales[4,5]  1
    x[5,4]    VisitarTodosArcosBidireccionales[5,4]  1
    x[5,4]    ConservacionDeFlujoPuntas[5]  -1
    x[5,4]    ConservacionDeFlujoCentro[4]  1
    x[1,6]    OBJ       9
    x[1,6]    VisitarTodosArcos[1,6]  1
    x[1,6]    ConservacionDeFlujoPuntas[6]  1
    x[1,6]    ConservacionDeFlujoCentro[1]  -1
    x[7,2]    OBJ       3
    x[7,2]    VisitarTodosArcos[7,2]  1
    x[7,2]    ConservacionDeFlujoCentro[2]  1
    x[7,2]    ConservacionDeFlujoCentro[7]  -1
    x[3,8]    OBJ       2
    x[3,8]    VisitarTodosArcos[3,8]  1
    x[3,8]    ConservacionDeFlujoPuntas[3]  -1
    x[3,8]    ConservacionDeFlujoCentro[8]  1
    x[9,4]    OBJ       1
    x[9,4]    VisitarTodosArcos[9,4]  1
    x[9,4]    ConservacionDeFlujoCentro[4]  1
    x[9,4]    ConservacionDeFlujoCentro[9]  -1
    x[5,10]   OBJ       8
    x[5,10]   VisitarTodosArcos[5,10]  1
    x[5,10]   ConservacionDeFlujoPuntas[5]  -1
    x[5,10]   ConservacionDeFlujoCentro[10]  1
    x[6,7]    OBJ       2
    x[6,7]    VisitarTodosArcosBidireccionales[6,7]  1
    x[6,7]    VisitarTodosArcosBidireccionales[7,6]  1
    x[6,7]    ConservacionDeFlujoPuntas[6]  -1
    x[6,7]    ConservacionDeFlujoCentro[7]  1
    x[7,8]    OBJ       2
    x[7,8]    VisitarTodosArcosBidireccionales[7,8]  1
    x[7,8]    VisitarTodosArcosBidireccionales[8,7]  1
    x[7,8]    ConservacionDeFlujoCentro[7]  -1
    x[7,8]    ConservacionDeFlujoCentro[8]  1
    x[8,9]    OBJ       7
    x[8,9]    VisitarTodosArcosBidireccionales[8,9]  1
    x[8,9]    VisitarTodosArcosBidireccionales[9,8]  1
    x[8,9]    ConservacionDeFlujoCentro[8]  -1
    x[8,9]    ConservacionDeFlujoCentro[9]  1
    x[9,10]   OBJ       8
    x[9,10]   VisitarTodosArcosBidireccionales[9,10]  1
    x[9,10]   VisitarTodosArcosBidireccionales[10,9]  1
    x[9,10]   ConservacionDeFlujoCentro[9]  -1
    x[9,10]   ConservacionDeFlujoCentro[10]  1
    x[7,6]    OBJ       2
    x[7,6]    VisitarTodosArcosBidireccionales[6,7]  1
    x[7,6]    VisitarTodosArcosBidireccionales[7,6]  1
    x[7,6]    ConservacionDeFlujoPuntas[6]  1
    x[7,6]    ConservacionDeFlujoCentro[7]  -1
    x[8,7]    OBJ       2
    x[8,7]    VisitarTodosArcosBidireccionales[7,8]  1
    x[8,7]    VisitarTodosArcosBidireccionales[8,7]  1
    x[8,7]    ConservacionDeFlujoCentro[7]  1
    x[8,7]    ConservacionDeFlujoCentro[8]  -1
    x[9,8]    OBJ       7
    x[9,8]    VisitarTodosArcosBidireccionales[8,9]  1
    x[9,8]    VisitarTodosArcosBidireccionales[9,8]  1
    x[9,8]    ConservacionDeFlujoCentro[8]  1
    x[9,8]    ConservacionDeFlujoCentro[9]  -1
    x[10,9]   OBJ       8
    x[10,9]   VisitarTodosArcosBidireccionales[9,10]  1
    x[10,9]   VisitarTodosArcosBidireccionales[10,9]  1
    x[10,9]   ConservacionDeFlujoCentro[9]  1
    x[10,9]   ConservacionDeFlujoCentro[10]  -1
    x[6,11]   OBJ       9
    x[6,11]   VisitarTodosArcos[6,11]  1
    x[6,11]   ConservacionDeFlujoPuntas[6]  -1
    x[6,11]   ConservacionDeFlujoCentro[11]  1
    x[12,7]   OBJ       2
    x[12,7]   VisitarTodosArcos[12,7]  1
    x[12,7]   ConservacionDeFlujoCentro[7]  1
    x[12,7]   ConservacionDeFlujoCentro[12]  -1
    x[8,13]   OBJ       3
    x[8,13]   VisitarTodosArcos[8,13]  1
    x[8,13]   ConservacionDeFlujoCentro[8]  -1
    x[8,13]   ConservacionDeFlujoCentro[13]  1
    x[14,9]   OBJ       9
    x[14,9]   VisitarTodosArcos[14,9]  1
    x[14,9]   ConservacionDeFlujoCentro[9]  1
    x[14,9]   ConservacionDeFlujoCentro[14]  -1
    x[10,15]  OBJ       8
    x[10,15]  VisitarTodosArcos[10,15]  1
    x[10,15]  ConservacionDeFlujoCentro[10]  -1
    x[10,15]  ConservacionDeFlujoCentro[15]  1
    x[11,12]  OBJ       8
    x[11,12]  VisitarTodosArcosBidireccionales[11,12]  1
    x[11,12]  VisitarTodosArcosBidireccionales[12,11]  1
    x[11,12]  ConservacionDeFlujoCentro[11]  -1
    x[11,12]  ConservacionDeFlujoCentro[12]  1
    x[12,13]  OBJ       4
    x[12,13]  VisitarTodosArcosBidireccionales[12,13]  1
    x[12,13]  VisitarTodosArcosBidireccionales[13,12]  1
    x[12,13]  ConservacionDeFlujoCentro[12]  -1
    x[12,13]  ConservacionDeFlujoCentro[13]  1
    x[13,14]  OBJ       2
    x[13,14]  VisitarTodosArcosBidireccionales[13,14]  1
    x[13,14]  VisitarTodosArcosBidireccionales[14,13]  1
    x[13,14]  ConservacionDeFlujoCentro[13]  -1
    x[13,14]  ConservacionDeFlujoCentro[14]  1
    x[14,15]  OBJ       8
    x[14,15]  VisitarTodosArcosBidireccionales[14,15]  1
    x[14,15]  VisitarTodosArcosBidireccionales[15,14]  1
    x[14,15]  ConservacionDeFlujoCentro[14]  -1
    x[14,15]  ConservacionDeFlujoCentro[15]  1
    x[12,11]  OBJ       8
    x[12,11]  VisitarTodosArcosBidireccionales[11,12]  1
    x[12,11]  VisitarTodosArcosBidireccionales[12,11]  1
    x[12,11]  ConservacionDeFlujoCentro[11]  1
    x[12,11]  ConservacionDeFlujoCentro[12]  -1
    x[13,12]  OBJ       4
    x[13,12]  VisitarTodosArcosBidireccionales[12,13]  1
    x[13,12]  VisitarTodosArcosBidireccionales[13,12]  1
    x[13,12]  ConservacionDeFlujoCentro[12]  1
    x[13,12]  ConservacionDeFlujoCentro[13]  -1
    x[14,13]  OBJ       2
    x[14,13]  VisitarTodosArcosBidireccionales[13,14]  1
    x[14,13]  VisitarTodosArcosBidireccionales[14,13]  1
    x[14,13]  ConservacionDeFlujoCentro[13]  1
    x[14,13]  ConservacionDeFlujoCentro[14]  -1
    x[15,14]  OBJ       8
    x[15,14]  VisitarTodosArcosBidireccionales[14,15]  1
    x[15,14]  VisitarTodosArcosBidireccionales[15,14]  1
    x[15,14]  ConservacionDeFlujoCentro[14]  1
    x[15,14]  ConservacionDeFlujoCentro[15]  -1
    x[11,16]  OBJ       4
    x[11,16]  VisitarTodosArcos[11,16]  1
    x[11,16]  ConservacionDeFlujoCentro[11]  -1
    x[11,16]  ConservacionDeFlujoCentro[16]  1
    x[17,12]  OBJ       3
    x[17,12]  VisitarTodosArcos[17,12]  1
    x[17,12]  ConservacionDeFlujoCentro[12]  1
    x[17,12]  ConservacionDeFlujoCentro[17]  -1
    x[13,18]  OBJ       8
    x[13,18]  VisitarTodosArcos[13,18]  1
    x[13,18]  ConservacionDeFlujoCentro[13]  -1
    x[13,18]  ConservacionDeFlujoCentro[18]  1
    x[19,14]  OBJ       9
    x[19,14]  VisitarTodosArcos[19,14]  1
    x[19,14]  ConservacionDeFlujoCentro[14]  1
    x[19,14]  ConservacionDeFlujoCentro[19]  -1
    x[15,20]  OBJ       3
    x[15,20]  VisitarTodosArcos[15,20]  1
    x[15,20]  ConservacionDeFlujoCentro[15]  -1
    x[15,20]  ConservacionDeFlujoCentro[20]  1
    x[16,17]  OBJ       4
    x[16,17]  VisitarTodosArcos[16,17]  1
    x[16,17]  ConservacionDeFlujoCentro[16]  -1
    x[16,17]  ConservacionDeFlujoCentro[17]  1
    x[17,18]  OBJ       8
    x[17,18]  VisitarTodosArcos[17,18]  1
    x[17,18]  ConservacionDeFlujoCentro[17]  -1
    x[17,18]  ConservacionDeFlujoCentro[18]  1
    x[18,19]  OBJ       3
    x[18,19]  VisitarTodosArcosBidireccionales[18,19]  1
    x[18,19]  VisitarTodosArcosBidireccionales[19,18]  1
    x[18,19]  ConservacionDeFlujoCentro[18]  -1
    x[18,19]  ConservacionDeFlujoCentro[19]  1
    x[19,20]  OBJ       2
    x[19,20]  VisitarTodosArcosBidireccionales[19,20]  1
    x[19,20]  VisitarTodosArcosBidireccionales[20,19]  1
    x[19,20]  ConservacionDeFlujoCentro[19]  -1
    x[19,20]  ConservacionDeFlujoCentro[20]  1
    x[17,16]  OBJ       8
    x[17,16]  VisitarTodosArcos[17,16]  1
    x[17,16]  ConservacionDeFlujoCentro[16]  1
    x[17,16]  ConservacionDeFlujoCentro[17]  -1
    x[18,17]  OBJ       4
    x[18,17]  VisitarTodosArcos[18,17]  1
    x[18,17]  ConservacionDeFlujoCentro[17]  1
    x[18,17]  ConservacionDeFlujoCentro[18]  -1
    x[19,18]  OBJ       3
    x[19,18]  VisitarTodosArcosBidireccionales[18,19]  1
    x[19,18]  VisitarTodosArcosBidireccionales[19,18]  1
    x[19,18]  ConservacionDeFlujoCentro[18]  1
    x[19,18]  ConservacionDeFlujoCentro[19]  -1
    x[20,19]  OBJ       2
    x[20,19]  VisitarTodosArcosBidireccionales[19,20]  1
    x[20,19]  VisitarTodosArcosBidireccionales[20,19]  1
    x[20,19]  ConservacionDeFlujoCentro[19]  1
    x[20,19]  ConservacionDeFlujoCentro[20]  -1
    x[16,21]  OBJ       8
    x[16,21]  VisitarTodosArcos[16,21]  1
    x[16,21]  ConservacionDeFlujoCentro[16]  -1
    x[16,21]  ConservacionDeFlujoCentro[21]  1
    x[22,17]  OBJ       4
    x[22,17]  VisitarTodosArcos[22,17]  1
    x[22,17]  ConservacionDeFlujoCentro[17]  1
    x[22,17]  ConservacionDeFlujoCentro[22]  -1
    x[18,23]  OBJ       8
    x[18,23]  VisitarTodosArcos[18,23]  1
    x[18,23]  ConservacionDeFlujoCentro[18]  -1
    x[18,23]  ConservacionDeFlujoCentro[23]  1
    x[24,19]  OBJ       9
    x[24,19]  VisitarTodosArcos[24,19]  1
    x[24,19]  ConservacionDeFlujoCentro[19]  1
    x[24,19]  ConservacionDeFlujoCentro[24]  -1
    x[20,25]  OBJ       1
    x[20,25]  VisitarTodosArcos[20,25]  1
    x[20,25]  ConservacionDeFlujoCentro[20]  -1
    x[20,25]  ConservacionDeFlujoCentro[25]  1
    x[21,22]  OBJ       8
    x[21,22]  VisitarTodosArcosBidireccionales[21,22]  1
    x[21,22]  VisitarTodosArcosBidireccionales[22,21]  1
    x[21,22]  ConservacionDeFlujoCentro[21]  -1
    x[21,22]  ConservacionDeFlujoCentro[22]  1
    x[22,23]  OBJ       3
    x[22,23]  VisitarTodosArcosBidireccionales[22,23]  1
    x[22,23]  VisitarTodosArcosBidireccionales[23,22]  1
    x[22,23]  ConservacionDeFlujoCentro[22]  -1
    x[22,23]  ConservacionDeFlujoCentro[23]  1
    x[23,24]  OBJ       11
    x[23,24]  VisitarTodosArcosBidireccionales[23,24]  1
    x[23,24]  VisitarTodosArcosBidireccionales[24,23]  1
    x[23,24]  ConservacionDeFlujoCentro[23]  -1
    x[23,24]  ConservacionDeFlujoCentro[24]  1
    x[24,25]  OBJ       8
    x[24,25]  VisitarTodosArcosBidireccionales[24,25]  1
    x[24,25]  VisitarTodosArcosBidireccionales[25,24]  1
    x[24,25]  ConservacionDeFlujoCentro[24]  -1
    x[24,25]  ConservacionDeFlujoCentro[25]  1
    x[22,21]  OBJ       8
    x[22,21]  VisitarTodosArcosBidireccionales[21,22]  1
    x[22,21]  VisitarTodosArcosBidireccionales[22,21]  1
    x[22,21]  ConservacionDeFlujoCentro[21]  1
    x[22,21]  ConservacionDeFlujoCentro[22]  -1
    x[23,22]  OBJ       3
    x[23,22]  VisitarTodosArcosBidireccionales[22,23]  1
    x[23,22]  VisitarTodosArcosBidireccionales[23,22]  1
    x[23,22]  ConservacionDeFlujoCentro[22]  1
    x[23,22]  ConservacionDeFlujoCentro[23]  -1
    x[24,23]  OBJ       11
    x[24,23]  VisitarTodosArcosBidireccionales[23,24]  1
    x[24,23]  VisitarTodosArcosBidireccionales[24,23]  1
    x[24,23]  ConservacionDeFlujoCentro[23]  1
    x[24,23]  ConservacionDeFlujoCentro[24]  -1
    x[25,24]  OBJ       8
    x[25,24]  VisitarTodosArcosBidireccionales[24,25]  1
    x[25,24]  VisitarTodosArcosBidireccionales[25,24]  1
    x[25,24]  ConservacionDeFlujoCentro[24]  1
    x[25,24]  ConservacionDeFlujoCentro[25]  -1
    s_i[3]    ConservacionDeFlujoPuntas[3]  1
    s_i[3]    NodoInicial  1
    s_i[5]    ConservacionDeFlujoPuntas[5]  1
    s_i[5]    NodoInicial  1
    s_i[6]    ConservacionDeFlujoPuntas[6]  1
    s_i[6]    NodoInicial  1
    t_i[1]    ConservacionDeFlujoCentro[1]  -1
    t_i[1]    NodoTerminal  1
    t_i[2]    ConservacionDeFlujoCentro[2]  -1
    t_i[2]    NodoTerminal  1
    t_i[3]    ConservacionDeFlujoPuntas[3]  -1
    t_i[3]    NodoTerminal  1
    t_i[4]    ConservacionDeFlujoCentro[4]  -1
    t_i[4]    NodoTerminal  1
    t_i[5]    ConservacionDeFlujoPuntas[5]  -1
    t_i[5]    NodoTerminal  1
    t_i[6]    ConservacionDeFlujoPuntas[6]  -1
    t_i[6]    NodoTerminal  1
    t_i[7]    ConservacionDeFlujoCentro[7]  -1
    t_i[7]    NodoTerminal  1
    t_i[8]    ConservacionDeFlujoCentro[8]  -1
    t_i[8]    NodoTerminal  1
    t_i[9]    ConservacionDeFlujoCentro[9]  -1
    t_i[9]    NodoTerminal  1
    t_i[10]   ConservacionDeFlujoCentro[10]  -1
    t_i[10]   NodoTerminal  1
    t_i[11]   ConservacionDeFlujoCentro[11]  -1
    t_i[11]   NodoTerminal  1
    t_i[12]   ConservacionDeFlujoCentro[12]  -1
    t_i[12]   NodoTerminal  1
    t_i[13]   ConservacionDeFlujoCentro[13]  -1
    t_i[13]   NodoTerminal  1
    t_i[14]   ConservacionDeFlujoCentro[14]  -1
    t_i[14]   NodoTerminal  1
    t_i[15]   ConservacionDeFlujoCentro[15]  -1
    t_i[15]   NodoTerminal  1
    t_i[16]   ConservacionDeFlujoCentro[16]  -1
    t_i[16]   NodoTerminal  1
    t_i[17]   ConservacionDeFlujoCentro[17]  -1
    t_i[17]   NodoTerminal  1
    t_i[18]   ConservacionDeFlujoCentro[18]  -1
    t_i[18]   NodoTerminal  1
    t_i[19]   ConservacionDeFlujoCentro[19]  -1
    t_i[19]   NodoTerminal  1
    t_i[20]   ConservacionDeFlujoCentro[20]  -1
    t_i[20]   NodoTerminal  1
    t_i[21]   ConservacionDeFlujoCentro[21]  -1
    t_i[21]   NodoTerminal  1
    t_i[22]   ConservacionDeFlujoCentro[22]  -1
    t_i[22]   NodoTerminal  1
    t_i[23]   ConservacionDeFlujoCentro[23]  -1
    t_i[23]   NodoTerminal  1
    t_i[24]   ConservacionDeFlujoCentro[24]  -1
    t_i[24]   NodoTerminal  1
    t_i[25]   ConservacionDeFlujoCentro[25]  -1
    t_i[25]   NodoTerminal  1
    MARKER    'MARKER'                 'INTEND'
RHS
    RHS1      VisitarTodosArcos[1,6]  1
    RHS1      VisitarTodosArcos[7,2]  1
    RHS1      VisitarTodosArcos[3,8]  1
    RHS1      VisitarTodosArcos[9,4]  1
    RHS1      VisitarTodosArcos[5,10]  1
    RHS1      VisitarTodosArcos[6,11]  1
    RHS1      VisitarTodosArcos[12,7]  1
    RHS1      VisitarTodosArcos[8,13]  1
    RHS1      VisitarTodosArcos[14,9]  1
    RHS1      VisitarTodosArcos[10,15]  1
    RHS1      VisitarTodosArcos[11,16]  1
    RHS1      VisitarTodosArcos[17,12]  1
    RHS1      VisitarTodosArcos[13,18]  1
    RHS1      VisitarTodosArcos[19,14]  1
    RHS1      VisitarTodosArcos[15,20]  1
    RHS1      VisitarTodosArcos[16,17]  1
    RHS1      VisitarTodosArcos[17,18]  1
    RHS1      VisitarTodosArcos[17,16]  1
    RHS1      VisitarTodosArcos[18,17]  1
    RHS1      VisitarTodosArcos[16,21]  1
    RHS1      VisitarTodosArcos[22,17]  1
    RHS1      VisitarTodosArcos[18,23]  1
    RHS1      VisitarTodosArcos[24,19]  1
    RHS1      VisitarTodosArcos[20,25]  1
    RHS1      VisitarTodosArcosBidireccionales[1,2]  1
    RHS1      VisitarTodosArcosBidireccionales[2,3]  1
    RHS1      VisitarTodosArcosBidireccionales[3,4]  1
    RHS1      VisitarTodosArcosBidireccionales[4,5]  1
    RHS1      VisitarTodosArcosBidireccionales[2,1]  1
    RHS1      VisitarTodosArcosBidireccionales[3,2]  1
    RHS1      VisitarTodosArcosBidireccionales[4,3]  1
    RHS1      VisitarTodosArcosBidireccionales[5,4]  1
    RHS1      VisitarTodosArcosBidireccionales[6,7]  1
    RHS1      VisitarTodosArcosBidireccionales[7,8]  1
    RHS1      VisitarTodosArcosBidireccionales[8,9]  1
    RHS1      VisitarTodosArcosBidireccionales[9,10]  1
    RHS1      VisitarTodosArcosBidireccionales[7,6]  1
    RHS1      VisitarTodosArcosBidireccionales[8,7]  1
    RHS1      VisitarTodosArcosBidireccionales[9,8]  1
    RHS1      VisitarTodosArcosBidireccionales[10,9]  1
    RHS1      VisitarTodosArcosBidireccionales[11,12]  1
    RHS1      VisitarTodosArcosBidireccionales[12,13]  1
    RHS1      VisitarTodosArcosBidireccionales[13,14]  1
    RHS1      VisitarTodosArcosBidireccionales[14,15]  1
    RHS1      VisitarTodosArcosBidireccionales[12,11]  1
    RHS1      VisitarTodosArcosBidireccionales[13,12]  1
    RHS1      VisitarTodosArcosBidireccionales[14,13]  1
    RHS1      VisitarTodosArcosBidireccionales[15,14]  1
    RHS1      VisitarTodosArcosBidireccionales[18,19]  1
    RHS1      VisitarTodosArcosBidireccionales[19,20]  1
    RHS1      VisitarTodosArcosBidireccionales[19,18]  1
    RHS1      VisitarTodosArcosBidireccionales[20,19]  1
    RHS1      VisitarTodosArcosBidireccionales[21,22]  1
    RHS1      VisitarTodosArcosBidireccionales[22,23]  1
    RHS1      VisitarTodosArcosBidireccionales[23,24]  1
    RHS1      VisitarTodosArcosBidireccionales[24,25]  1
    RHS1      VisitarTodosArcosBidireccionales[22,21]  1
    RHS1      VisitarTodosArcosBidireccionales[23,22]  1
    RHS1      VisitarTodosArcosBidireccionales[24,23]  1
    RHS1      VisitarTodosArcosBidireccionales[25,24]  1
    RHS1      NodoInicial  1
    RHS1      NodoTerminal  1
BOUNDS
 LI BND1      x[1,2]    0
 LI BND1      x[2,3]    0
 LI BND1      x[3,4]    0
 LI BND1      x[4,5]    0
 LI BND1      x[2,1]    0
 LI BND1      x[3,2]    0
 LI BND1      x[4,3]    0
 LI BND1      x[5,4]    0
 LI BND1      x[1,6]    0
 LI BND1      x[7,2]    0
 LI BND1      x[3,8]    0
 LI BND1      x[9,4]    0
 LI BND1      x[5,10]   0
 LI BND1      x[6,7]    0
 LI BND1      x[7,8]    0
 LI BND1      x[8,9]    0
 LI BND1      x[9,10]   0
 LI BND1      x[7,6]    0
 LI BND1      x[8,7]    0
 LI BND1      x[9,8]    0
 LI BND1      x[10,9]   0
 LI BND1      x[6,11]   0
 LI BND1      x[12,7]   0
 LI BND1      x[8,13]   0
 LI BND1      x[14,9]   0
 LI BND1      x[10,15]  0
 LI BND1      x[11,12]  0
 LI BND1      x[12,13]  0
 LI BND1      x[13,14]  0
 LI BND1      x[14,15]  0
 LI BND1      x[12,11]  0
 LI BND1      x[13,12]  0
 LI BND1      x[14,13]  0
 LI BND1      x[15,14]  0
 LI BND1      x[11,16]  0
 LI BND1      x[17,12]  0
 LI BND1      x[13,18]  0
 LI BND1      x[19,14]  0
 LI BND1      x[15,20]  0
 LI BND1      x[16,17]  0
 LI BND1      x[17,18]  0
 LI BND1      x[18,19]  0
 LI BND1      x[19,20]  0
 LI BND1      x[17,16]  0
 LI BND1      x[18,17]  0
 LI BND1      x[19,18]  0
 LI BND1      x[20,19]  0
 LI BND1      x[16,21]  0
 LI BND1      x[22,17]  0
 LI BND1      x[18,23]  0
 LI BND1      x[24,19]  0
 LI BND1      x[20,25]  0
 LI BND1      x[21,22]  0
 LI BND1      x[22,23]  0
 LI BND1      x[23,24]  0
 LI BND1      x[24,25]  0
 LI BND1      x[22,21]  0
 LI BND1      x[23,22]  0
 LI BND1      x[24,23]  0
 LI BND1      x[25,24]  0
 BV BND1      s_i[3]  
 BV BND1      s_i[5]  
 BV BND1      s_i[6]  
 BV BND1      t_i[1]  
 BV BND1      t_i[2]  
 BV BND1      t_i[3]  
 BV BND1      t_i[4]  
 BV BND1      t_i[5]  
 BV BND1      t_i[6]  
 BV BND1      t_i[7]  
 BV BND1      t_i[8]  
 BV BND1      t_i[9]  
 BV BND1      t_i[10] 
 BV BND1      t_i[11] 
 BV BND1      t_i[12] 
 BV BND1      t_i[13] 
 BV BND1      t_i[14] 
 BV BND1      t_i[15] 
 BV BND1      t_i[16] 
 BV BND1      t_i[17] 
 BV BND1      t_i[18] 
 BV BND1      t_i[19] 
 BV BND1      t_i[20] 
 BV BND1      t_i[21] 
 BV BND1      t_i[22] 
 BV BND1      t_i[23] 
 BV BND1      t_i[24] 
 BV BND1      t_i[25] 
ENDATA
